N = 5;
H = 5;
T = 2;

avail = array3d(1..N, 1..H, 1..T, [0, 3, 5, 0, 7, 0, 7, 0, 10, 7, 9, 1, 1, 7, 4, 1, 2, 1, 6, 0, 6, 9, 1, 6, 0, 9, 6, 7, 8, 8, 6, 9, 5, 2, 1, 2, 4, 1, 8, 1, 1, 3, 3, 6, 8, 5, 8, 3, 5, 7]);

r = array2d(1..H, 1..T, [2, 1, 2, 1, 1, 2, 0, 1, 1, 1]);
